p tdp 24 36
1 14
1 16
1 21
2 10
2 19
2 20
3 10
3 15
3 23
4 6
4 7
4 13
5 6
5 8
5 16
6 20
7 23
7 24
8 12
8 17
9 15
9 17
9 20
10 18
11 13
11 21
11 22
12 14
12 18
13 19
14 19
15 21
16 23
17 22
18 24
22 24
